f:19681502
solution:
30 69 195 109 172 154 193 145 138 179 23 29 161 43 63 72 35 143 140 52 147 176 120 188 71 28 81 102 45 116 113 1 131 42 192 151 150 82 164 142 108 115 135 26 13 62 38 186 94 118 64 184 173 12 190 86 96 10 111 156 141 31 56 78 162 194 53 169 18 54 14 88 126 153 34 129 163 155 66 166 137 152 73 24 36 44 182 175 198 37 70 17 171 148 167 110 67 114 170 187 33 168 124 22 49 146 51 3 112 197 80 136 90 6 58 40 74 178 159 5 39 19 77 117 165 174 27 55 2 123 91 61 158 134 196 21 160 48 93 75 107 9 125 68 25 177 104 191 128 87 76 95 189 59 57 7 101 100 180 4 103 8 144 11 133 97 157 83 121 84 20 47 99 185 105 50 181 127 41 0 65 79 132 60 119 139 199 122 183 92 32 89 46 106 15 85 130 149 98 16 
